120 3832.0 5600.0 6358.3 7070.0 9128.0
180 3832.0 5562.0 5982.1 7070.0 7543.0
240 3832.0 5600.0 5984.6 6987.0 7799.0
300 3832.0 4945.0 5652.8 6089.0 7799.0
360 3922.0 4908.0 5661.0 6336.0 7799.0
420 3922.0 4645.0 5314.6 5865.0 7799.0
480 4292.0 4908.0 5389.4 5706.0 7800.0
540 3832.0 4292.0 5249.9 5706.0 7800.0
600 3602.0 4097.0 4925.4 5287.0 7800.0
660 3602.0 4097.0 4950.7 5294.0 7800.0
720 3063.0 4097.0 4814.4 5287.0 7800.0
780 2910.0 4097.0 4431.4 4854.0 6235.0
840 2910.0 3842.0 4615.3 5287.0 7800.0
900 2252.0 3842.0 4134.8 4854.0 5287.0
960 2053.0 3199.0 3718.4 4364.0 5508.0
1020 1628.0 3199.0 3615.0 4118.0 5508.0
1080 1628.0 3246.0 3569.1 3992.0 5508.0
1140 1628.0 3246.0 3530.1 3992.0 5508.0
1200 1628.0 3287.0 3694.5 4363.0 6003.0
1260 1628.0 2714.0 3336.9 3724.0 4979.0
1320 1628.0 2458.0 3263.0 3724.0 4979.0
1380 1628.0 2251.0 3215.5 3724.0 4979.0
1440 915.0 2251.0 3000.4 3629.0 4979.0
1500 891.0 2251.0 2985.9 3632.0 5287.0
1560 669.0 2251.0 2823.1 3580.0 4979.0
1620 669.0 2251.0 2957.1 3580.0 6285.0
1680 669.0 2161.0 2687.4 3580.0 4836.0
1740 669.0 1627.0 2586.2 3570.0 4836.0
1800 669.0 1627.0 2544.3 3283.0 4836.0
1860 669.0 1627.0 2544.3 3283.0 4836.0
1920 669.0 1627.0 2488.3 3283.0 4394.0
1980 669.0 1627.0 2346.3 3087.0 3710.0
2040 669.0 1627.0 2449.3 3283.0 3744.0
2100 669.0 1627.0 2359.8 3087.0 3744.0
2160 669.0 1627.0 2294.1 3087.0 3710.0
2220 669.0 1571.0 2184.6 3087.0 3710.0
2280 669.0 1629.0 2230.3 3087.0 3995.0
2340 669.0 1627.0 2119.7 2798.0 3923.0
2400 669.0 1624.0 2061.0 2962.0 3614.0
2460 669.0 1315.0 2119.3 2949.0 4364.0
2520 669.0 1315.0 2029.3 2438.0 4364.0
2580 669.0 1315.0 2000.6 2438.0 4364.0
2640 669.0 1342.0 1822.1 2216.0 3648.0
2700 669.0 1342.0 1731.9 1825.0 3648.0
2760 669.0 1165.0 1685.3 1825.0 3648.0
2820 669.0 1165.0 1582.5 1825.0 3484.0
2880 669.0 1008.0 1554.8 1825.0 3364.0
2940 669.0 1008.0 1370.5 1730.0 1980.0
3000 669.0 1165.0 1386.2 1730.0 1980.0
3060 669.0 1165.0 1337.4 1635.0 1857.0
3120 669.0 1165.0 1319.6 1635.0 1796.0
3180 669.0 1165.0 1319.6 1635.0 1796.0
3240 669.0 1165.0 1319.6 1635.0 1796.0
3300 669.0 1165.0 1319.6 1635.0 1796.0
3360 669.0 1165.0 1304.1 1421.0 1980.0
3420 669.0 1165.0 1304.1 1421.0 1980.0
3480 669.0 976.0 1267.5 1421.0 1980.0
3540 669.0 859.0 1242.3 1451.0 1980.0
3600 669.0 859.0 1242.3 1451.0 1980.0
3660 669.0 859.0 1202.8 1421.0 1980.0
3720 669.0 859.0 1202.8 1421.0 1980.0
3780 669.0 859.0 1132.1 1366.0 1730.0
3840 669.0 859.0 1129.0 1421.0 1730.0
3900 669.0 859.0 1137.1 1383.0 1730.0
3960 669.0 859.0 1116.3 1366.0 1730.0
4020 669.0 859.0 1116.3 1366.0 1730.0
4080 669.0 859.0 1086.7 1366.0 1434.0
4140 669.0 859.0 1086.7 1366.0 1434.0
4200 669.0 806.0 1064.6 1366.0 1434.0
4260 669.0 806.0 1059.7 1366.0 1421.0
4320 669.0 806.0 1059.7 1366.0 1421.0
4380 669.0 806.0 1059.7 1366.0 1421.0
4440 669.0 806.0 1059.7 1366.0 1421.0
4500 669.0 806.0 1059.7 1366.0 1421.0
4560 669.0 806.0 1080.1 1366.0 1625.0
4620 669.0 806.0 1080.1 1366.0 1625.0
4680 669.0 806.0 999.4 1181.0 1385.0
4740 669.0 806.0 1034.8 1181.0 1625.0
4800 669.0 806.0 978.6 1165.0 1385.0
4860 669.0 806.0 974.1 1165.0 1385.0
4920 669.0 806.0 974.1 1165.0 1385.0
4980 669.0 806.0 997.5 1165.0 1385.0
5040 669.0 831.0 981.1 1165.0 1385.0
5100 669.0 806.0 978.6 1165.0 1385.0
5160 669.0 806.0 978.6 1165.0 1385.0
5220 669.0 806.0 978.6 1165.0 1385.0
5280 669.0 806.0 978.6 1165.0 1385.0
5340 669.0 806.0 972.5 1120.0 1385.0
5400 669.0 806.0 972.5 1120.0 1385.0
5460 669.0 806.0 972.5 1120.0 1385.0
5520 669.0 806.0 972.5 1120.0 1385.0
5580 669.0 806.0 972.5 1120.0 1385.0
5640 669.0 806.0 947.6 1063.0 1385.0
5700 669.0 806.0 947.6 1063.0 1385.0
5760 669.0 707.0 926.7 1063.0 1385.0
5820 669.0 707.0 892.3 1056.0 1120.0
5880 669.0 707.0 892.3 1056.0 1120.0
5940 669.0 707.0 892.3 1056.0 1120.0
6000 669.0 707.0 880.6 1056.0 1120.0
6060 669.0 707.0 880.6 1056.0 1120.0
6120 669.0 707.0 880.6 1056.0 1120.0
6180 669.0 707.0 880.6 1056.0 1120.0
6240 489.0 689.0 837.1 1056.0 1120.0
6300 489.0 689.0 858.3 1056.0 1120.0
6360 489.0 689.0 837.1 1056.0 1120.0
6420 489.0 689.0 837.1 1056.0 1120.0
6480 489.0 689.0 837.1 1056.0 1120.0
6540 489.0 689.0 837.1 1056.0 1120.0
6600 489.0 689.0 837.1 1056.0 1120.0
6660 489.0 689.0 837.1 1056.0 1120.0
6720 489.0 689.0 837.1 1056.0 1120.0
6780 489.0 689.0 837.1 1056.0 1120.0
6840 489.0 689.0 837.1 1056.0 1120.0
6900 489.0 689.0 837.1 1056.0 1120.0
6960 489.0 689.0 837.1 1056.0 1120.0
7020 489.0 689.0 837.1 1056.0 1120.0
7080 489.0 689.0 837.1 1056.0 1120.0
7140 489.0 689.0 837.1 1056.0 1120.0
7200 489.0 689.0 837.1 1056.0 1120.0
7260 489.0 689.0 837.1 1056.0 1120.0
7320 489.0 689.0 812.6 913.0 1120.0
7380 489.0 689.0 812.6 913.0 1120.0
7440 489.0 689.0 812.6 913.0 1120.0
7500 489.0 689.0 812.6 913.0 1120.0
7560 489.0 689.0 812.6 913.0 1120.0
7620 489.0 689.0 812.6 913.0 1120.0
7680 489.0 689.0 812.6 913.0 1120.0
7740 489.0 689.0 812.6 913.0 1120.0
7800 489.0 689.0 812.6 913.0 1120.0
7860 489.0 689.0 812.6 913.0 1120.0
7920 489.0 689.0 812.6 913.0 1120.0
7980 489.0 689.0 812.6 913.0 1120.0
8040 489.0 689.0 812.6 913.0 1120.0
8100 489.0 689.0 812.6 913.0 1120.0
8160 489.0 689.0 812.6 913.0 1120.0
8220 489.0 689.0 812.6 913.0 1120.0
8280 489.0 689.0 812.6 913.0 1120.0
8340 489.0 689.0 812.6 913.0 1120.0
8400 489.0 689.0 812.6 913.0 1120.0
8460 489.0 689.0 812.6 913.0 1120.0
8520 489.0 689.0 812.6 913.0 1120.0
8580 489.0 689.0 812.6 913.0 1120.0
8640 489.0 689.0 812.6 913.0 1120.0
8700 489.0 689.0 812.6 913.0 1120.0
8760 489.0 689.0 812.6 913.0 1120.0
8820 489.0 689.0 812.6 913.0 1120.0
8880 489.0 689.0 812.6 913.0 1120.0
8940 489.0 689.0 812.6 913.0 1120.0
9000 489.0 689.0 812.6 913.0 1120.0
9060 489.0 689.0 812.6 913.0 1120.0
9120 489.0 689.0 812.6 913.0 1120.0
9180 489.0 689.0 812.6 913.0 1120.0
9240 489.0 689.0 812.6 913.0 1120.0
9300 489.0 689.0 812.6 913.0 1120.0
9360 489.0 689.0 812.6 913.0 1120.0
9420 489.0 689.0 812.6 913.0 1120.0
9480 489.0 689.0 812.6 913.0 1120.0
9540 489.0 689.0 812.6 913.0 1120.0
9600 489.0 689.0 810.4 913.0 1120.0
9660 489.0 689.0 810.4 913.0 1120.0
9720 489.0 689.0 810.4 913.0 1120.0
9780 489.0 689.0 810.4 913.0 1120.0
9840 489.0 689.0 810.4 913.0 1120.0
9900 489.0 689.0 810.4 913.0 1120.0
9960 489.0 689.0 810.4 913.0 1120.0
10020 489.0 689.0 810.4 913.0 1120.0
10080 489.0 689.0 803.4 859.0 1120.0
10140 489.0 689.0 803.4 859.0 1120.0
10200 489.0 689.0 790.8 859.0 1034.0
10260 489.0 689.0 763.4 843.0 1034.0
10320 489.0 689.0 763.4 843.0 1034.0
10380 489.0 689.0 763.4 843.0 1034.0
10440 489.0 689.0 763.4 843.0 1034.0
10500 489.0 689.0 763.4 843.0 1034.0
10560 489.0 689.0 763.4 843.0 1034.0
10620 489.0 689.0 763.4 843.0 1034.0
10680 489.0 689.0 763.4 843.0 1034.0
10740 489.0 689.0 763.4 843.0 1034.0
10800 489.0 689.0 763.4 843.0 1034.0
10860 489.0 689.0 763.4 843.0 1034.0
10920 489.0 689.0 763.4 843.0 1034.0
10980 489.0 689.0 763.4 843.0 1034.0
11040 489.0 689.0 763.4 843.0 1034.0
11100 489.0 689.0 763.4 843.0 1034.0
11160 489.0 689.0 763.4 843.0 1034.0
11220 489.0 689.0 763.4 843.0 1034.0
11280 489.0 689.0 763.4 843.0 1034.0
11340 489.0 689.0 763.4 843.0 1034.0
11400 489.0 689.0 763.4 843.0 1034.0
11460 489.0 689.0 763.4 843.0 1034.0
11520 489.0 689.0 763.4 843.0 1034.0
11580 489.0 689.0 763.4 843.0 1034.0
11640 489.0 689.0 763.4 843.0 1034.0
11700 489.0 689.0 763.4 843.0 1034.0
11760 489.0 689.0 763.4 843.0 1034.0
11820 489.0 689.0 763.4 843.0 1034.0
11880 489.0 689.0 763.4 843.0 1034.0
11940 489.0 689.0 763.4 843.0 1034.0
12000 489.0 689.0 763.4 843.0 1034.0
12060 489.0 689.0 763.4 843.0 1034.0
12120 489.0 689.0 763.4 843.0 1034.0
12180 489.0 689.0 763.4 843.0 1034.0
12240 489.0 689.0 763.4 843.0 1034.0
12300 489.0 689.0 763.4 843.0 1034.0
12360 489.0 689.0 763.4 843.0 1034.0
12420 489.0 689.0 763.4 843.0 1034.0
12480 489.0 689.0 763.4 843.0 1034.0
12540 489.0 689.0 763.4 843.0 1034.0
12600 489.0 689.0 763.4 843.0 1034.0
12660 489.0 689.0 763.4 843.0 1034.0
12720 489.0 689.0 763.4 843.0 1034.0
12780 489.0 689.0 763.4 843.0 1034.0
12840 489.0 689.0 763.4 843.0 1034.0
12900 489.0 689.0 763.4 843.0 1034.0
12960 489.0 689.0 763.4 843.0 1034.0
13020 489.0 689.0 763.4 843.0 1034.0
13080 489.0 689.0 763.4 843.0 1034.0
13140 489.0 689.0 763.4 843.0 1034.0
13200 489.0 689.0 763.4 843.0 1034.0
13260 489.0 689.0 763.4 843.0 1034.0
13320 489.0 689.0 763.4 843.0 1034.0
13380 489.0 689.0 763.4 843.0 1034.0
13440 489.0 689.0 763.4 843.0 1034.0
13500 489.0 689.0 763.4 843.0 1034.0
13560 489.0 689.0 763.4 843.0 1034.0
13620 489.0 689.0 763.4 843.0 1034.0
13680 489.0 689.0 763.4 843.0 1034.0
13740 489.0 689.0 763.4 843.0 1034.0
13800 489.0 689.0 763.4 843.0 1034.0
13860 489.0 689.0 763.4 843.0 1034.0
13920 489.0 689.0 763.4 843.0 1034.0
13980 489.0 689.0 763.4 843.0 1034.0
14040 489.0 689.0 763.4 843.0 1034.0
14100 489.0 689.0 763.4 843.0 1034.0
14160 489.0 689.0 763.4 843.0 1034.0
14220 489.0 689.0 763.4 843.0 1034.0
14280 489.0 689.0 763.4 843.0 1034.0
14340 489.0 689.0 763.4 843.0 1034.0
14400 489.0 689.0 763.4 843.0 1034.0
14460 489.0 689.0 763.4 843.0 1034.0
14520 489.0 689.0 763.4 843.0 1034.0
14580 489.0 689.0 763.4 843.0 1034.0
14640 489.0 689.0 763.4 843.0 1034.0
14700 489.0 689.0 763.4 843.0 1034.0
14760 489.0 689.0 763.4 843.0 1034.0
14820 489.0 689.0 763.4 843.0 1034.0
14880 489.0 689.0 763.4 843.0 1034.0
14940 489.0 689.0 763.4 843.0 1034.0
15000 489.0 689.0 763.4 843.0 1034.0
15060 489.0 689.0 763.4 843.0 1034.0
15120 489.0 689.0 763.4 843.0 1034.0
15180 489.0 689.0 759.9 818.0 1034.0
15240 489.0 689.0 759.9 818.0 1034.0
15300 489.0 689.0 759.9 818.0 1034.0
15360 489.0 689.0 759.9 818.0 1034.0
15420 489.0 689.0 759.9 818.0 1034.0
15480 489.0 689.0 759.9 818.0 1034.0
15540 489.0 689.0 759.9 818.0 1034.0
15600 489.0 689.0 759.9 818.0 1034.0
15660 489.0 689.0 759.9 818.0 1034.0
15720 489.0 689.0 759.9 818.0 1034.0
15780 489.0 689.0 759.9 818.0 1034.0
15840 489.0 689.0 759.9 818.0 1034.0
15900 489.0 689.0 759.9 818.0 1034.0
15960 489.0 669.0 734.0 808.0 1034.0
16020 489.0 669.0 734.0 808.0 1034.0
16080 489.0 669.0 734.0 808.0 1034.0
16140 489.0 669.0 734.0 808.0 1034.0
16200 489.0 669.0 734.0 808.0 1034.0
16260 489.0 669.0 734.0 808.0 1034.0
16320 489.0 669.0 734.0 808.0 1034.0
16380 489.0 669.0 734.0 808.0 1034.0
16440 489.0 669.0 734.0 808.0 1034.0
16500 489.0 669.0 734.0 808.0 1034.0
16560 489.0 669.0 734.0 808.0 1034.0
16620 489.0 669.0 734.0 808.0 1034.0
16680 489.0 669.0 734.0 808.0 1034.0
16740 489.0 669.0 729.8 808.0 992.0
16800 489.0 669.0 729.8 808.0 992.0
16860 489.0 669.0 729.8 808.0 992.0
16920 489.0 669.0 734.0 808.0 1034.0
16980 489.0 669.0 734.0 808.0 1034.0
17040 489.0 669.0 734.0 808.0 1034.0
17100 489.0 669.0 734.0 808.0 1034.0
17160 489.0 669.0 734.0 808.0 1034.0
17220 489.0 669.0 734.0 808.0 1034.0
17280 489.0 669.0 734.0 808.0 1034.0
17340 489.0 669.0 734.0 808.0 1034.0
17400 489.0 669.0 734.0 808.0 1034.0
17460 489.0 669.0 734.0 808.0 1034.0
17520 489.0 669.0 734.0 808.0 1034.0
17580 489.0 669.0 734.0 808.0 1034.0
17640 489.0 669.0 734.0 808.0 1034.0
17700 489.0 669.0 734.0 808.0 1034.0
17760 489.0 669.0 734.0 808.0 1034.0
17820 489.0 669.0 734.0 808.0 1034.0
17880 489.0 669.0 734.0 808.0 1034.0
17940 489.0 669.0 734.0 808.0 1034.0
18000 489.0 669.0 734.0 808.0 1034.0
18060 489.0 669.0 734.0 808.0 1034.0
18120 489.0 669.0 734.0 808.0 1034.0
18180 489.0 669.0 734.0 808.0 1034.0
18240 489.0 669.0 734.0 808.0 1034.0
18300 489.0 669.0 734.0 808.0 1034.0
18360 489.0 669.0 734.0 808.0 1034.0
18420 489.0 669.0 734.0 808.0 1034.0
18480 489.0 669.0 734.0 808.0 1034.0
18540 489.0 669.0 734.0 808.0 1034.0
18600 489.0 669.0 734.0 808.0 1034.0
18660 489.0 669.0 734.0 808.0 1034.0
18720 489.0 669.0 734.0 808.0 1034.0
18780 489.0 669.0 734.0 808.0 1034.0
18840 489.0 669.0 734.0 808.0 1034.0
18900 489.0 669.0 734.0 808.0 1034.0
18960 489.0 669.0 734.0 808.0 1034.0
19020 489.0 669.0 734.0 808.0 1034.0
19080 489.0 669.0 734.0 808.0 1034.0
19140 489.0 669.0 734.0 808.0 1034.0
19200 489.0 669.0 734.0 808.0 1034.0
19260 489.0 669.0 734.0 808.0 1034.0
19320 489.0 669.0 734.0 808.0 1034.0
19380 489.0 669.0 734.0 808.0 1034.0
19440 489.0 669.0 734.0 808.0 1034.0
19500 489.0 669.0 734.0 808.0 1034.0
19560 489.0 669.0 734.0 808.0 1034.0
19620 489.0 669.0 734.0 808.0 1034.0
19680 489.0 669.0 734.0 808.0 1034.0
19740 489.0 669.0 734.0 808.0 1034.0
19800 489.0 669.0 734.0 808.0 1034.0
19860 489.0 669.0 734.0 808.0 1034.0
19920 489.0 669.0 734.0 808.0 1034.0
19980 489.0 669.0 734.0 808.0 1034.0
20040 489.0 669.0 734.0 808.0 1034.0
20100 489.0 669.0 734.0 808.0 1034.0
20160 489.0 669.0 734.0 808.0 1034.0
20220 489.0 669.0 734.0 808.0 1034.0
20280 489.0 669.0 734.0 808.0 1034.0
20340 489.0 669.0 734.0 808.0 1034.0
20400 489.0 669.0 734.0 808.0 1034.0
20460 489.0 669.0 734.0 808.0 1034.0
20520 489.0 669.0 734.0 808.0 1034.0
20580 489.0 669.0 734.0 808.0 1034.0
20640 489.0 669.0 734.0 808.0 1034.0
20700 489.0 669.0 724.4 806.0 1034.0
20760 489.0 669.0 734.0 808.0 1034.0
20820 489.0 669.0 734.0 808.0 1034.0
20880 489.0 669.0 734.0 808.0 1034.0
20940 489.0 669.0 734.0 808.0 1034.0
21000 489.0 669.0 734.0 808.0 1034.0
21060 489.0 669.0 734.0 808.0 1034.0
21120 489.0 669.0 734.0 808.0 1034.0
21180 489.0 669.0 734.0 808.0 1034.0
21240 489.0 669.0 734.0 808.0 1034.0
21300 489.0 669.0 734.0 808.0 1034.0
21360 489.0 669.0 734.0 808.0 1034.0
21420 489.0 669.0 734.0 808.0 1034.0
21480 489.0 669.0 734.0 808.0 1034.0
21540 489.0 669.0 734.0 808.0 1034.0
21600 489.0 669.0 734.0 808.0 1034.0
21660 489.0 669.0 734.0 808.0 1034.0
21720 489.0 669.0 734.0 808.0 1034.0
21780 489.0 669.0 734.0 808.0 1034.0
21840 489.0 669.0 734.0 808.0 1034.0
21900 489.0 669.0 734.0 808.0 1034.0
21960 489.0 669.0 734.0 808.0 1034.0
22020 489.0 669.0 734.0 808.0 1034.0
22080 489.0 669.0 734.0 808.0 1034.0
22140 489.0 669.0 734.0 808.0 1034.0
22200 489.0 669.0 734.0 808.0 1034.0
22260 489.0 669.0 734.0 808.0 1034.0
22320 489.0 669.0 734.0 808.0 1034.0
22380 489.0 669.0 734.0 808.0 1034.0
22440 489.0 669.0 734.0 808.0 1034.0
22500 489.0 669.0 734.0 808.0 1034.0
22560 489.0 669.0 734.0 808.0 1034.0
22620 489.0 669.0 734.0 808.0 1034.0
22680 489.0 669.0 734.0 808.0 1034.0
22740 489.0 669.0 734.0 808.0 1034.0
22800 489.0 669.0 734.0 808.0 1034.0
22860 489.0 669.0 734.0 808.0 1034.0
22920 489.0 669.0 734.0 808.0 1034.0
22980 489.0 669.0 734.0 808.0 1034.0
23040 489.0 669.0 734.0 808.0 1034.0
23100 489.0 669.0 734.0 808.0 1034.0
23160 489.0 669.0 734.0 808.0 1034.0
23220 489.0 669.0 734.0 808.0 1034.0
23280 489.0 669.0 734.0 808.0 1034.0
23340 489.0 669.0 734.0 808.0 1034.0
23400 489.0 669.0 734.0 808.0 1034.0
23460 489.0 669.0 734.0 808.0 1034.0
23520 489.0 669.0 734.0 808.0 1034.0
23580 489.0 669.0 734.0 808.0 1034.0
23640 489.0 669.0 734.0 808.0 1034.0
23700 489.0 669.0 734.0 808.0 1034.0
23760 489.0 669.0 734.0 808.0 1034.0
23820 489.0 669.0 734.0 808.0 1034.0
23880 489.0 669.0 734.0 808.0 1034.0
23940 489.0 669.0 734.0 808.0 1034.0
24000 489.0 669.0 734.0 808.0 1034.0
24060 489.0 669.0 734.0 808.0 1034.0
24120 489.0 669.0 734.0 808.0 1034.0
24180 489.0 669.0 734.0 808.0 1034.0
24240 489.0 669.0 734.0 808.0 1034.0
24300 489.0 669.0 734.0 808.0 1034.0
24360 489.0 669.0 734.0 808.0 1034.0
24420 489.0 669.0 734.0 808.0 1034.0
24480 489.0 669.0 734.0 808.0 1034.0
24540 489.0 669.0 734.0 808.0 1034.0
24600 489.0 669.0 734.0 808.0 1034.0
24660 489.0 669.0 734.0 808.0 1034.0
24720 489.0 669.0 734.0 808.0 1034.0
24780 489.0 669.0 734.0 808.0 1034.0
24840 489.0 669.0 734.0 808.0 1034.0
24900 489.0 669.0 734.0 808.0 1034.0
24960 489.0 669.0 734.0 808.0 1034.0
25020 489.0 669.0 734.0 808.0 1034.0
25080 489.0 669.0 734.0 808.0 1034.0
25140 489.0 669.0 734.0 808.0 1034.0
25200 489.0 669.0 734.0 808.0 1034.0
25260 489.0 669.0 734.0 808.0 1034.0
25320 489.0 669.0 734.0 808.0 1034.0
25380 489.0 669.0 734.0 808.0 1034.0
25440 489.0 669.0 734.0 808.0 1034.0
25500 489.0 669.0 734.0 808.0 1034.0
25560 489.0 669.0 734.0 808.0 1034.0
25620 489.0 669.0 734.0 808.0 1034.0
25680 489.0 669.0 734.0 808.0 1034.0
25740 489.0 669.0 734.0 808.0 1034.0
25800 489.0 669.0 734.0 808.0 1034.0
25860 489.0 669.0 742.0 859.0 1034.0
25920 489.0 669.0 742.0 859.0 1034.0
25980 489.0 669.0 742.0 859.0 1034.0
26040 489.0 669.0 742.0 859.0 1034.0
26100 489.0 669.0 734.0 808.0 1034.0
26160 489.0 669.0 734.0 808.0 1034.0
26220 489.0 669.0 724.8 808.0 1034.0
26280 489.0 669.0 734.3 809.0 1034.0
26340 489.0 669.0 734.0 808.0 1034.0
26400 489.0 669.0 734.0 808.0 1034.0
26460 489.0 669.0 734.0 808.0 1034.0
26520 489.0 669.0 734.0 808.0 1034.0
26580 489.0 669.0 734.0 808.0 1034.0
26640 489.0 669.0 734.0 808.0 1034.0
26700 489.0 669.0 734.0 808.0 1034.0
26760 489.0 669.0 734.0 808.0 1034.0
26820 489.0 669.0 734.0 808.0 1034.0
26880 489.0 669.0 734.0 808.0 1034.0
26940 489.0 669.0 734.0 808.0 1034.0
27000 489.0 669.0 734.0 808.0 1034.0
27060 489.0 669.0 734.0 808.0 1034.0
